<number of tasks>
50

<cycle time>
1000

<order strength>
0.198


<task times>
1 753
2 268
3 602
4 670
5 478
6 396
7 700
8 469
9 393
10 358
11 617
12 481
13 612
14 439
15 410
16 473
17 627
18 489
19 467
20 465
21 534
22 541
23 516
24 430
25 319
26 564
27 584
28 508
29 511
30 344
31 380
32 378
33 436
34 555
35 632
36 461
37 521
38 479
39 621
40 380
41 434
42 305
43 628
44 544
45 649
46 583
47 457
48 534
49 650
50 529

<precedence relations>
1,6
2,7
3,8
3,10
3,11
4,22
5,9
6,12
7,15
8,13
9,14
9,17
10,16
11,18
11,48
12,20
13,19
14,21
15,47
16,22
16,24
17,25
18,23
18,35
19,28
20,27
21,29
22,26
22,35
24,30
24,31
26,32
27,33
28,34
29,35
29,36
29,37
30,37
30,43
30,44
30,47
31,38
32,40
33,39
34,41
35,43
36,49
37,42
38,44
39,47
40,45
41,46
42,48
42,50
43,49
44,48

<end>
